LAMMPS (29 Mar 2019)
OMP_NUM_THREADS environment is not set. Defaulting to 1 thread. (src/comm.cpp:88)
  using 1 OpenMP thread(s) per MPI task
###################### Protein Translocation ######################
clear
OMP_NUM_THREADS environment is not set. Defaulting to 1 thread. (src/comm.cpp:88)
  using 1 OpenMP thread(s) per MPI task

#Initialization
#------------------------------------
units				lj
dimension			3
atom_style			full
boundary			p p p

#Atom Definition
#-------------------------------------
read_data			../data.prot
  orthogonal box = (-10 -10 -120) to (10 10 120)
  1 by 1 by 1 MPI processor grid
  reading atoms ...
  7039 atoms
  0 = max # of 1-2 neighbors
  0 = max # of 1-3 neighbors
  0 = max # of 1-4 neighbors
  1 = max # of special neighbors
  special bonds CPU = 0.00125933 secs
  read_data CPU = 0.0112221 secs

#Force definition
#----------------------------------------------

#Pair definition
dielectric		80
pair_style		 lj/cut/coul/debye 1.53 1.12 5
pair_modify 		 shift yes
pair_coeff	1 1 1 1 1.12
pair_coeff	1 2 1 1 1.12
pair_coeff	2 2 1 1 1.12

#Group etc
#------------------------------------------
group protein type 1
76 atoms in group protein
group pore type 2
6963 atoms in group pore
neigh_modify exclude type 1 1
neigh_modify exclude type 2 2

#Timestep etc
#--------------------------------------------
timestep		0.03
run_style		verlet
velocity		protein	create	1	10

#Fix
#---------------------------------------
fix 1 protein rigid/nve group 1 protein  langevin 1	1	1	10
1 rigid bodies with 76 atoms
variable rad atom sqrt(x*x+y*y)
variable rad2 atom (x*x+y*y)
variable forz atom -0.00333032-2.48216e-19*v_rad+2.65514e-05*v_rad2+9.68155e-21*v_rad2*v_rad-3.31157e-06*v_rad2*v_rad2-2.35103e-22*v_rad2*v_rad2*v_rad+2.42746e-07*v_rad2*v_rad2*v_rad2
fix 2 protein addforce 0 0 v_forz

#Dump
#------------------------------------------------
variable zc equal xcm(protein,z)

thermo_style		 custom step temp press pe evdwl ecoul ke etotal enthalpy v_zc
thermo 	2000
dump	3 protein custom 2000 dump.lammpstrj id mol type xu yu zu

#--------Variables etc ---------
variable pLong equal 84.2105
variable nLong equal -84.2105
fix 4 protein efield 0.0 0.0 0.019
run	2000000000 every 200000 " if '${zc} < ${nLong} || ${zc} > ${pLong}' then quit"
Neighbor list info ...
  update every 1 steps, delay 10 steps, check yes
  max neighbors/atom: 2000, page size: 100000
  master list distance cutoff = 1.42
  ghost atom cutoff = 1.42
  binsize = 0.71, bins = 29 29 339
  1 neighbor lists, perpetual/occasional/extra = 1 0 0
  (1) pair lj/cut/coul/debye, perpetual
      attributes: half, newton on
      pair build: half/bin/newton
      stencil: half/bin/3d/newton
      bin: standard
Per MPI rank memory allocation (min/avg/max) = 10.42 | 10.42 | 10.42 Mbytes
Step Temp Press PotEng E_vdwl E_coul KinEng TotEng Enthalpy v_zc 
       0 0.00012078047 0.0027922238            0            0            0 0.00017924034 0.00017924034  0.038260429 -3.9473684e-08 
    2000 0.00010365617 -8.2661364e-05            0            0            0 0.00015382758 0.00015382758 -0.00097353298  -0.82500796 
    4000 0.00020258948 3.0891874e-05            0            0            0 0.00030064636 0.00030064636 0.00072195904   0.41181158 
    6000 0.00054156998 0.00011933754            0            0            0 0.0008036994 0.0008036994 0.0024312607  -0.51284191 
    8000 0.00024410053 9.3435059e-05            0            0            0 0.00036224948 0.00036224948 0.0016365449   -1.4041518 
   10000 0.00072196578 0.0005379164            0            0            0 0.0010714099 0.0010714099 0.0084076756   -2.8126382 
   12000 0.00019573809 -0.00016359185            0            0            0 0.00029047877 0.00029047877 -0.0019406361   -3.0018462 
   14000 0.00029662073 -0.00045664083            0            0            0 0.00044019039 0.00044019039 -0.0057876147   -3.8734701 
   16000 0.0004343446 -3.1878519e-05            0            0            0 0.00064457504 0.00064457504 0.0002098062   -6.1791875 
   18000 0.00044012953 -0.00012882675            0            0            0 0.00065315998 0.00065315998 -0.0011038179   -5.7963296 
   20000 2.2314549e-05 -0.00059320547            0            0            0 3.3115184e-05 3.3115184e-05 -0.0080571995   -5.7537322 
   22000 0.00052284458 -0.00026408889            0            0            0 0.00077591056 0.00077591056 -0.0028258131   -4.4017281 
   24000 0.00010515329 -0.00047510471            0            0            0 0.00015604933 0.00015604933 -0.0063235717   -4.9273363 
   26000 0.00022448947 0.00036694955            0            0            0 0.00033314633 0.00033314633 0.0053377147   -5.0522739 
   28000 0.00074616705 -0.00088980568            0            0            0 0.0011073251 0.0011073251 -0.011028113   -4.3378371 
   30000 0.00016159267 6.7804802e-05            0            0            0 0.00023980637 0.00023980637 0.0011645487   -7.1438279 
   32000 9.6861995e-05 -0.0013319131            0            0            0 0.00014374491 0.00014374491 -0.018021286    -7.929008 
   34000 0.00035818177 -0.0013890175            0            0            0 0.00053154806 0.00053154806 -0.018412291   -9.3654612 
   36000 0.00066202077 -0.001245373            0            0            0 0.00098245048 0.00098245048 -0.016002322   -9.0762534 
   38000 0.00011504482 -0.0013368552            0            0            0 0.00017072853 0.00017072853 -0.018061705   -11.335596 
   40000 0.00017390995 0.0042956191            0            0            0 0.00025808543 0.00025808543  0.058843031   -12.392517 
   42000 0.00039197169 0.0023263266            0            0            0 0.0005816929 0.0005816929  0.032308835   -13.222274 
   44000 0.00027083939 -0.0032734105            0            0            0 0.00040193042 0.00040193042 -0.044241827   -14.624618 
   46000 0.00030533256 0.0047772982 1.3380924e-06 1.3380924e-06            0 0.00045311889 0.00045445699  0.065608687   -15.031828 
   48000 0.00025115655 -0.0039901568            0            0            0 0.00037272075 0.00037272075 -0.054046238   -15.321624 
   50000 9.0335326e-05 -0.0013939772            0            0            0 0.00013405922 0.00013405922 -0.018877421   -15.270589 
   52000 0.00040589583 -0.00049567907            0            0            0 0.00060235656 0.00060235656 -0.0061578637   -14.511811 
   54000 0.00026414038 -0.0012952247            0            0            0 0.00039198898 0.00039198898 -0.017272675   -14.399107 
   56000 0.00030220277 0.0020607836            0            0            0 0.00044847424 0.00044847424  0.028554062   -13.089554 
   58000 0.00023123942 -0.00020891366 9.2847537e-06 9.2847537e-06            0 0.00034316337 0.00035244812 -0.0024967792   -11.950123 
   60000 0.00015579227 0.0020839794            0            0            0 0.00023119847 0.00023119847  0.028653136   -11.652208 
   62000 0.00039421157 -0.0016477745 -4.1777169e-05 2.1764148e-06 -4.3953584e-05 0.00058501691 0.00054323974 -0.021929604   -12.272981 
   64000 0.00033167837 -0.00024494465 4.8631436e-06 4.8631436e-06            0 0.00049221654 0.00049707969 -0.0028435492   -12.753179 
   66000 0.00029451612 -0.0005599944            0            0            0 0.0004370671 0.0004370671 -0.007200305   -12.847781 
   68000 0.00046150703 0.0028897729            0            0            0 0.00068488456 0.00068488456  0.040096477   -12.038362 
   70000 0.00049152886 -0.0013317353 2.5430677e-05 2.5430677e-05            0 0.00072943748 0.00075486816 -0.017407739   -12.519993 
   72000 0.00023247358 -0.001936434 2.5698586e-05 2.5698586e-05            0 0.00034499488 0.00037069347 -0.026038976   -12.132644 
   74000 0.00021469634 -0.0011076368            0            0            0 0.00031861315 0.00031861315 -0.014787671   -12.709095 
   76000 0.0004202543 0.00077469095 -2.7408855e-05 1.4740139e-05 -4.2148994e-05 0.00062366478 0.00059625592  0.011161724   -13.097601 
   78000 0.00014186303 0.0019290212 2.1672425e-06 2.1672425e-06            0 0.00021052723 0.00021269448  0.026521267   -13.739023 
   80000 0.00012510031 -0.00012451586            0            0            0 0.00018565106 0.00018565106 -0.0015125336   -14.402528 
   82000 0.00026444382 0.00058322558 9.8532829e-05 9.8532829e-05            0 0.00039243928 0.00049097211  0.008445178   -15.240625 
   84000 0.00026033027 -0.0020766658 -2.763501e-05 7.0582259e-05 -9.8217269e-05 0.00038633471 0.00035869969 -0.027963493   -15.331549 
   86000 0.00036257872 0.0011553871            0            0            0 0.0005380732 0.0005380732  0.016295591   -17.258822 
   88000 0.00018629273 -0.0018220443            0            0            0 0.00027646169 0.00027646169 -0.024573127   -16.537774 
   90000 0.00025228009 0.0025468675            0            0            0 0.0003743881 0.0003743881  0.035109334   -17.189499 
   92000 0.00050903535 -0.0055297289 8.1259317e-06 8.1259317e-06            0 0.00075541743 0.00076354336 -0.074652563   -18.011702 
   94000 0.00043847616 0.0011846308            0            0            0 0.00065070635 0.00065070635  0.016807057    -19.98619 
   96000 0.00015436782 -0.0047579125            0            0            0 0.00022908456 0.00022908456 -0.064660758   -22.249497 
   98000 0.00024326095 -0.00054487409            0            0            0 0.00036100353 0.00036100353 -0.0070701532   -22.675405 
  100000 0.00025896107 -0.0071759508            0            0            0 0.00038430279 0.00038430279 -0.097483474   -21.609846 
  102000 0.00029451688 0.0017451919 5.8784865e-05 0.00011223335 -5.3448484e-05 0.00043706825 0.00049585311  0.024297305   -21.333002 
  104000 0.00018667521 -0.0042914065            0            0            0 0.00027702931 0.00027702931 -0.058250464   -21.331232 
  106000 0.00019607236 -0.00024114392            0            0            0 0.00029097484 0.00029097484 -0.0029978184    -21.74528 
  108000 0.00029621621 -0.0012415699            0            0            0 0.00043959007 0.00043959007 -0.016493314   -22.958078 
  110000 0.00035326425 -0.002668527            0            0            0 0.00052425036 0.00052425036 -0.035869924   -22.843689 
  112000 0.00042137188 -0.0050232815            0            0            0 0.00062532329 0.00062532329 -0.067883701   -24.893231 
  114000 9.6930342e-05 0.00096481391            0            0            0 0.00014384633 0.00014384633  0.013302269   -25.568333 
  116000 0.00044546335 -0.0094019453            0            0            0 0.00066107545 0.00066107545  -0.12756548   -25.383999 
  118000 0.00068162858 -0.001627146            0            0            0 0.0010115488 0.0010115488 -0.021179958   -26.998816 
  120000 0.00047707415 0.0045613521            0            0            0 0.00070798644 0.00070798644  0.062917079    -28.83805 
  122000 0.00071357959 -0.0017273935            0            0            0 0.0010589647 0.0010589647 -0.022499748   -28.256246 
  124000 0.00013896668 -0.0025509032            0            0            0 0.00020622901 0.00020622901 -0.034583757   -27.919414 
  126000 0.00044900855 -0.00058011796            0            0            0 0.0006663366 0.0006663366 -0.0072454867    -27.40407 
  128000 0.00038177232 0.00088911847            0            0            0 0.00056655685 0.00056655685  0.012692622   -29.115761 
  130000 0.00064464185 -0.0026789535            0            0            0 0.00095665986 0.00095665986 -0.035579714   -28.342592 
  132000 0.00039932186 0.0041264389            0            0            0 0.00059260068 0.00059260068  0.056870215   -28.804797 
  134000 0.00028908936 -0.0017128684            0            0            0 0.0004290137 0.0004290137 -0.022931601   -27.645152 
  136000 0.00046038215 -0.0058736187            0            0            0 0.00068321522 0.00068321522 -0.079422964   -27.961051 
  138000 0.00010611937 -0.0089608714            0            0            0 0.00015748301 0.00015748301  -0.12205358   -31.167675 
  140000 0.00025631894 0.0031739469            0            0            0 0.00038038182 0.00038038182  0.043667625   -32.182804 
  142000 0.00013223858 0.0045592551 -1.1522599e-05 3.8700215e-05 -5.0222814e-05 0.00019624438 0.00018472178  0.062365215   -29.516839 
  144000 0.00015088519 -0.00071918286            0            0            0 0.00022391628 0.00022391628 -0.009584516   -28.959883 
  146000 0.00010136667  0.001475119            0            0            0 0.00015042992 0.00015042992  0.020268546   -28.967765 
  148000 0.00069967689 -0.0059327882            0            0            0 0.0010383328 0.0010383328 -0.079874818   -29.325676 
  150000 0.00020687749 -0.0019229742            0            0            0 0.00030700984 0.00030700984 -0.025919091   -28.883513 
  152000 0.00012442104 0.0017383796            0            0            0 0.00018464302 0.00018464302  0.023893187   -29.268294 
  154000 0.00010691233 0.0046040648            0            0            0 0.00015865978 0.00015865978  0.062950281    -27.96431 
  156000 0.00055623411  0.010609557            0            0            0 0.00082546122 0.00082546122   0.14552179   -27.501436 
  158000 0.00025248891 0.00036449069            0            0            0  0.000374698  0.000374698 0.0053457317   -29.066649 
  160000 0.00018742345 0.0077312037            0            0            0 0.0002781397 0.0002781397   0.10571862   -30.265585 
  162000 0.00051692584 -0.0030135322            0            0            0 0.00076712705 0.00076712705 -0.040332332   -30.143157 
  164000 0.00035486454 -0.0010886748            0            0            0 0.00052662523 0.00052662523  -0.01432105   -30.240471 
  166000 0.00037114334 -0.0043947314            0            0            0 0.00055078326 0.00055078326 -0.059385886   -31.042515 
  168000 0.00018698827 0.0078152536            0            0            0 0.00027749389 0.00027749389   0.10686427   -30.509639 
  170000 0.00015161823 0.0045605515            0            0            0 0.00022500413 0.00022500413  0.062423178   -30.121191 
  172000 0.00014201702 -0.0019473446            0            0            0 0.00021075576 0.00021075576 -0.026347716   -30.621202 
  174000 7.3026453e-05 0.0040622465 2.706561e-06 2.706561e-06            0 0.00010837254 0.0001110791  0.055513219    -30.54673 
  176000 0.00041039652 -0.0055892225            0            0            0 0.00060903567 0.00060903567 -0.075618463   -30.228895 
  178000 0.00038960241 -0.0015011512            0            0            0 0.00057817683 0.00057817683 -0.019894975   -30.269195 
  180000 0.00018838532 -0.00090446903            0            0            0 0.00027956714 0.00027956714 -0.012055854   -30.447673 
  182000 0.00034472808 -0.0001272526            0            0            0 0.00051158254 0.00051158254 -0.0012239267   -32.092936 
  184000 9.3910243e-05 -0.00088576533            0            0            0 0.00013936445 0.00013936445  -0.01194097   -32.003166 
  186000 0.00018160706 -0.0013310735            0            0            0 0.00026950808 0.00026950808 -0.017884072   -31.561818 
  188000 0.0003924648 -0.00064198575            0            0            0 0.00058242468 0.00058242468 -0.0081731701    -33.10452 
  190000 8.8963442e-05 -0.001502315            0            0            0 0.00013202331 0.00013202331 -0.020357001      -33.512 
  192000 0.00047051175 0.0024057637 -1.0624704e-05 3.9693111e-05 -5.0317816e-05 0.00069824773 0.00068762302  0.033498152   -33.884286 
  194000 0.00041577694 -0.0037469129            0            0            0 0.0006170203 0.0006170203 -0.050484505   -35.235509 
  196000 0.00030623341 -0.00017692619            0            0            0 0.00045445577 0.00045445577 -0.0019585169   -35.552643 
  198000 0.00042406027 -0.0084685284            0            0            0 0.00062931291 0.00062931291  -0.11486703   -35.758891 
  200000 0.00026882587 0.0042288422            0            0            0 0.00039894232 0.00039894232  0.058073164   -36.601298 
Loop time of 110.048 on 1 procs for 200000 steps with 7039 atoms

Performance: 4710663.650 tau/day, 1817.386 timesteps/s
100.0% CPU use with 1 MPI tasks x 1 OpenMP threads

MPI task timing breakdown:
Section |  min time  |  avg time  |  max time  |%varavg| %total
---------------------------------------------------------------
Pair    | 8.4402     | 8.4402     | 8.4402     |   0.0 |  7.67
Bond    | 0.023977   | 0.023977   | 0.023977   |   0.0 |  0.02
Neigh   | 54.797     | 54.797     | 54.797     |   0.0 | 49.79
Comm    | 2.5699     | 2.5699     | 2.5699     |   0.0 |  2.34
Output  | 0.047728   | 0.047728   | 0.047728   |   0.0 |  0.04
Modify  | 38.857     | 38.857     | 38.857     |   0.0 | 35.31
Other   |            | 5.312      |            |       |  4.83

Nlocal:    7039 ave 7039 max 7039 min
Histogram: 1 0 0 0 0 0 0 0 0 0
Nghost:    0 ave 0 max 0 min
Histogram: 1 0 0 0 0 0 0 0 0 0
Neighs:    1 ave 1 max 1 min
Histogram: 1 0 0 0 0 0 0 0 0 0

Total # of neighbors = 1
Ave neighs/atom = 0.000142066
Ave special neighs/atom = 0
Neighbor list builds = 15178
Dangerous builds = 5966
 if '${zc} < ${nLong} || ${zc} > ${pLong}' then quit
Per MPI rank memory allocation (min/avg/max) = 10.42 | 10.42 | 10.42 Mbytes
Step Temp Press PotEng E_vdwl E_coul KinEng TotEng Enthalpy v_zc 
  200000 0.00026882587 1.9501077e-05            0            0            0 0.00039894232 0.00039894232 0.00066490387   -36.601298 
  202000 0.00023505131 -0.006506349 -1.645251e-05 3.3216651e-05 -4.9669161e-05 0.00034882029 0.00033236778 -0.088403178    -38.48795 
  204000 0.00040721642 -0.0059414417            0            0            0 0.00060431634 0.00060431634 -0.080426853   -36.619763 
  206000 0.00013835301 0.00017051476 0.00017321339 0.00028051234 -0.00010729896 0.00020531831 0.0003785317 0.0027040633   -36.041295 
  208000 0.00024339853 0.0099979631            0            0            0 0.0003612077 0.0003612077   0.13671644   -34.691763 
  210000 0.00019003287 -0.001681431  2.90216e-06  2.90216e-06            0 0.00028201212 0.00028491428 -0.022646948   -36.052745 
  212000 0.0005162038 -0.00042390314 -3.6884111e-05 9.2860867e-06 -4.6170198e-05 0.00076605553 0.00072917142 -0.0050521472   -37.992014 
  214000 9.6534684e-05  0.003419534            0            0            0 0.00014325917 0.00014325917  0.046779893   -36.936665 
  216000 0.00023465505  0.001378623            0            0            0 0.00034823223 0.00034823223  0.019150308   -37.735624 
  218000 0.00031797901 -0.0040305313            0            0            0 0.00047188646 0.00047188646 -0.054497712   -38.292273 
  220000 0.00039460759 -0.0010802731            0            0            0 0.00058560461 0.00058560461 -0.014147484   -36.889563 
  222000 7.4183212e-05 -0.0072568671 5.9549986e-05 1.5094602e-05 4.4455383e-05 0.00011008919 0.00016963918 -0.098801698   -36.322779 
  224000 0.00044069709 0.00047277742            0            0            0 0.00065400224 0.00065400224 0.0071018829   -36.779992 
  226000 0.00038926254  0.013669164            0            0            0 0.00057767246 0.00057767246   0.18700184   -35.268348 
  228000 7.8077962e-05  -0.01050035 -4.2262903e-05 2.5240481e-07 -4.2515308e-05 0.00011586907 7.3606168e-05  -0.14313333   -35.140977 
  230000 0.00046466764 -0.00078523444            0            0            0 0.00068957496 0.00068957496 -0.010019689   -33.817088 
  232000 0.00027519737 0.0096610297            0            0            0 0.00040839775 0.00040839775   0.13216843   -34.252112 
  234000 0.00031402647 -0.018256798            0            0            0 0.00046602081 0.00046602081  -0.24852568   -39.331953 
  236000 0.0009013107 -0.0035088248            0            0            0  0.001337561  0.001337561 -0.046516848   -40.695058 
  238000 0.00032536915   0.01360985 2.7585665e-06 2.7585665e-06            0 0.00048285355 0.00048561211   0.18610084     -39.2704 
  240000 0.00062519605 -0.0086122543            0            0            0 0.00092780195 0.00092780195  -0.11652871   -39.552615 
  242000 0.00074686933 0.0047920664            0            0            0 0.0011083672 0.0011083672  0.066464011   -40.603437 
  244000 0.00019642866  0.014104863 3.6879007e-05 3.6879007e-05            0 0.00029150359 0.0003283826   0.19269475    -42.95321 
  246000 0.00077647868 -0.004767492            0            0            0  0.001152308  0.001152308 -0.063868183   -42.519707 
  248000 0.00021725603 -0.0002432273            0            0            0 0.00032241177 0.00032241177 -0.0029947954   -42.239821 
  250000 0.00038421271 -0.0057074528            0            0            0 0.00057017842 0.00057017842 -0.077269781   -41.549963 
  252000 0.00011443811  0.012295231            0            0            0 0.00016982817 0.00016982817   0.16785589   -40.830428 
  254000 0.00028972113 -0.00012215533            0            0            0 0.00042995126 0.00042995126 -0.0012360399   -41.283959 
  256000 0.00025408488 -0.0072276304 2.3668915e-05 2.3668915e-05            0 0.00037706644 0.00040073536 -0.098171863    -40.56389 
  258000 6.4395003e-05 0.0018971778            0            0            0 9.5563319e-05 9.5563319e-05  0.025969844   -40.506359 
  260000 6.7211921e-05 -0.013779505            0            0            0 9.9743674e-05 9.9743674e-05  -0.18782929   -39.038217 
  262000 6.6952973e-05 0.0018601272            0            0            0 9.9359392e-05 9.9359392e-05  0.025468334   -39.588365 
  264000 0.00023854099 0.0016302026            0            0            0 0.00035399903 0.00035399903  0.022587193   -38.838088 
  266000  0.000570455 -0.00021677007            0            0            0 0.00084656526 0.00084656526 -0.0021098102   -38.110506 
  268000 0.00044091553 -0.0027764059 -1.8345033e-05 2.6897193e-05 -4.5242226e-05 0.00065432642 0.00063598139 -0.037229477   -37.893344 
  270000 0.0005067212 0.0083712324 6.1112769e-05 1.5624751e-05 4.5488018e-05 0.00075198319 0.00081309596   0.11498248   -38.336094 
  272000 0.00013188125 -0.009996695 4.465897e-06 4.465897e-06            0 0.00019571409 0.00020017999  -0.13613775   -37.915197 
  274000 9.6544695e-05 -0.00068114541            0            0            0 0.00014327403 0.00014327403 -0.009146392   -38.990714 
  276000 0.0002233591 0.0079326926 1.5794627e-06 1.5794627e-06            0 0.00033146884 0.0003330483    0.1085215    -40.36295 
  278000 0.00023362441 0.0031383603            0            0            0 0.00034670274 0.00034670274  0.043148605   -39.042257 
  280000 0.00010754685 2.9477753e-05 -3.1915157e-05 1.307756e-05 -4.4992718e-05 0.00015960142 0.00012768626 0.00052971273   -37.763676 
  282000 0.00021148657 0.0031494681            0            0            0 0.0003138498 0.0003138498  0.043267244   -37.849913 
  284000 0.00017008695 0.0040727901            0            0            0 0.00025241203 0.00025241203  0.055798349   -38.687982 
  286000 0.00033281551 -0.0091368939            0            0            0 0.00049390408 0.00049390408   -0.1241178   -38.455898 
  288000 0.00021595987 0.0017228624            0            0            0 0.00032048825 0.00032048825  0.023817404   -37.852115 
  290000 0.00026849084 -0.0098214102            0            0            0 0.00039844514 0.00039844514   -0.1335489   -37.734084 
  292000 0.00040732322 -0.0041451994            0            0            0 0.00060447483 0.00060447483 -0.055929001   -39.174098 
  294000 8.3080977e-05 0.0066142215 0.00012662506 0.00012662506            0 0.00012329363 0.00024991869  0.090456661   -37.830278 
  296000 6.285428e-05 0.0032554606            0            0            0 9.3276859e-05 9.3276859e-05  0.044492227   -40.267635 
  298000 4.6382582e-05 -0.0066893189            0            0            0 6.8832569e-05 6.8832569e-05 -0.091162111   -40.569659 
  300000 0.00028916127 0.00023216654 8.2004001e-06 8.2004001e-06            0 0.00042912042 0.00043732082 0.0036036779   -40.289187 
  302000 0.00038215217 -0.0054308855 2.6606875e-05 2.6606875e-05            0 0.00056712055 0.00059372742 -0.073474324    -41.04963 
  304000 0.00028242993 0.0046602101            0            0            0 0.00041913099 0.00041913099  0.063976478     -41.8619 
  306000 0.00031841145 -0.0018508641            0            0            0 0.0004725282 0.0004725282 -0.024770113   -41.068667 
  308000 0.00022101111 0.0018544785            0            0            0 0.00032798438 0.00032798438   0.02561992   -39.554222 
  310000 4.0013118e-05 -0.00085376451 7.2049545e-07 4.7930298e-05 -4.7209803e-05 5.9380171e-05 6.0100667e-05 -0.011583797   -38.294752 
  312000 0.00031757047 -0.0007073815            0            0            0 0.00047128017 0.00047128017 -0.0091762016   -38.104174 
  314000 0.00044701022 -0.0069414953            0            0            0 0.00066337104 0.00066337104 -0.094006831   -41.366031 
  316000 0.0002075853 -0.0064892112            0            0            0 0.00030806025 0.00030806025 -0.088193755   -41.644542 
  318000 0.00038709727 -0.00095349687            0            0            0 0.00057445916 0.00057445916 -0.012429618   -41.289175 
  320000 0.00026880368 -0.0012134313            0            0            0 0.0003989094 0.0003989094 -0.016150231   -43.484367 
  322000 0.00053953092 -0.0051795617            0            0            0 0.00080067339 0.00080067339 -0.069839747    -43.21795 
  324000 0.00019130104 0.0070631209 7.9645988e-06 7.9645988e-06            0 0.00028389412 0.00029185872  0.096620827   -42.652055 
  326000 0.00012049872 -9.8236398e-05            0            0            0 0.00017882222 0.00017882222 -0.0011609553   -43.779205 
  328000 0.00017167403 0.0012891733            0            0            0 0.00025476729 0.00025476729    0.0178369   -43.418719 
  330000 0.00061749347 -0.0011821253            0            0            0 0.00091637119 0.00091637119 -0.015205809   -45.094345 
  332000 0.00013527799  0.011862662            0            0            0 0.00020075492 0.00020075492   0.16198731   -43.352912 
  334000 0.00013265948 -0.0018503636            0            0            0  0.000196869  0.000196869 -0.025038947   -42.924918 
  336000 0.00012209798 -0.0064319062            0            0            0 0.00018119556 0.00018119556 -0.087539076   -41.467968 
  338000 9.473729e-05 0.0037816231            0            0            0 0.00014059181 0.00014059181  0.051715505   -41.147684 
  340000 0.00053044471 -0.0011315316 4.6823419e-05 4.6823419e-05            0 0.0007871893 0.00083401272 -0.014598156   -39.687482 
  342000 0.00056141485 -0.0065716636            0            0            0 0.00083314953 0.00083314953 -0.088793176   -36.860525 
  344000 0.00026450508 0.0088030819            0            0            0 0.0003925302 0.0003925302   0.12045161   -39.078611 
  346000 0.00044030369 -0.0073835252            0            0            0 0.00065341843 0.00065341843  -0.10004532   -39.689075 
  348000 0.00044487665 0.0038454911            0            0            0 0.00066020479 0.00066020479  0.053106169   -41.045066 
  350000 0.00027749123 -0.004849825 2.0116537e-05 7.3016013e-05 -5.2899475e-05 0.00041180188 0.00043191841 -0.065711455   -40.714062 
  352000 7.7546255e-05 -0.012589916 5.5392699e-05 5.5392699e-05            0 0.00011508001 0.00017047271  -0.17153459   -40.132145 
  354000 0.00028515652 -0.0071724174            0            0            0 0.00042317729 0.00042317729 -0.097396409   -38.643987 
  356000 0.00013655188 -0.012346502            0            0            0 0.0002026454 0.0002026454  -0.16818266   -39.103071 
  358000 0.00058090089 -0.00016810662            0            0            0 0.00086206715 0.00086206715 -0.0014306215   -40.494522 
  360000 0.00028088162 0.0055343425            0            0            0 0.00041683327 0.00041683327  0.075895862    -42.84008 
  362000 0.00030110741 -0.015203264 -2.8547431e-05 1.9422525e-05 -4.7969955e-05 0.0004468487 0.00041830127  -0.20692838   -43.512964 
  364000 0.0002317588  0.011436369            0            0            0 0.00034393414 0.00034393414   0.15631657   -42.079975 
  366000 0.00057452248 0.0024456428            0            0            0 0.00085260149 0.00085260149  0.034207014   -42.804572 
  368000 0.00036436697 -0.0051022287            0            0            0 0.00054072701 0.00054072701 -0.069045004   -42.866064 
  370000 0.00023337303 0.0074923668 8.1847877e-05 8.1847877e-05            0 0.00034632968 0.00042817756   0.10261133   -44.488502 
  372000 0.00036581655 -0.013404592 4.8221276e-05 3.7470859e-06 4.447419e-05 0.0005428782 0.00059109947  -0.18222476   -43.829635 
  374000 0.00032677046 0.00068841463            0            0            0 0.00048493311 0.00048493311 0.0098737389   -41.013474 
  376000 0.00010471031 -0.0094821404            0            0            0 0.00015539195 0.00015539195  -0.12916489   -39.807037 
  378000 0.00027156451 0.0099509874            0            0            0 0.00040300652 0.00040300652   0.13611757   -38.645794 
  380000 0.00032756388 0.0029259741            0            0            0 0.00048611057 0.00048611057  0.040391425   -37.983053 
  382000 0.00047162062 -0.0039436759            0            0            0 0.00069989331 0.00069989331 -0.053085145    -38.14888 
  384000 0.00040118184  0.011444318            0            0            0 0.00059536092 0.00059536092   0.15667641   -38.305039 
  386000 0.00038971875 -0.0042391185 3.3258566e-05 3.3258566e-05            0 0.00057834949 0.00061160806 -0.057202765   -37.087979 
  388000 0.00033882094 0.0029860045 6.8585989e-05 6.8585989e-05            0 0.00050281624 0.00057140223   0.04129543   -37.506732 
  390000 0.00017543391 0.00042745359            0            0            0 0.00026034701 0.00026034701 0.0060900877   -36.604652 
  392000 0.00016923351 -0.005713125            0            0            0 0.00025114551 0.00025114551 -0.077666172   -35.732508 
  394000 3.848947e-05 0.0046688221            0            0            0 5.7119051e-05 5.7119051e-05   0.06373192   -36.529027 
  396000 7.886801e-05 0.0098330915            0            0            0 0.00011704152 0.00011704152    0.1342237   -35.609702 
  398000 0.00038950564 -0.0076527917 -8.4573863e-05 1.6438609e-06 -8.6217724e-05 0.00057803323 0.00049345937  -0.10387762   -36.486999 
  400000 0.00051789074 -0.0043294388 0.00012490896 0.00012490896            0 0.00076855898 0.00089346793 -0.058152721   -36.888705 
Loop time of 119.98 on 1 procs for 200000 steps with 7039 atoms

Performance: 4320708.460 tau/day, 1666.940 timesteps/s
99.7% CPU use with 1 MPI tasks x 1 OpenMP threads

MPI task timing breakdown:
Section |  min time  |  avg time  |  max time  |%varavg| %total
---------------------------------------------------------------
Pair    | 9.0379     | 9.0379     | 9.0379     |   0.0 |  7.53
Bond    | 0.027424   | 0.027424   | 0.027424   |   0.0 |  0.02
Neigh   | 59.133     | 59.133     | 59.133     |   0.0 | 49.29
Comm    | 2.8143     | 2.8143     | 2.8143     |   0.0 |  2.35
Output  | 0.29015    | 0.29015    | 0.29015    |   0.0 |  0.24
Modify  | 42.718     | 42.718     | 42.718     |   0.0 | 35.60
Other   |            | 5.96       |            |       |  4.97

Nlocal:    7039 ave 7039 max 7039 min
Histogram: 1 0 0 0 0 0 0 0 0 0
Nghost:    0 ave 0 max 0 min
Histogram: 1 0 0 0 0 0 0 0 0 0
Neighs:    3 ave 3 max 3 min
Histogram: 1 0 0 0 0 0 0 0 0 0

Total # of neighbors = 3
Ave neighs/atom = 0.000426197
Ave special neighs/atom = 0
Neighbor list builds = 15371
Dangerous builds = 6313
 if '${zc} < ${nLong} || ${zc} > ${pLong}' then quit
Per MPI rank memory allocation (min/avg/max) = 10.42 | 10.42 | 10.42 Mbytes
Step Temp Press PotEng E_vdwl E_coul KinEng TotEng Enthalpy v_zc 
  400000 0.00051789074 0.00042604384 0.00012490896 0.00012490896            0 0.00076855898 0.00089346793 0.0067039821   -36.888705 
  402000 0.00027191377 -0.004665116            0            0            0 0.00040352482 0.00040352482 -0.063220731   -36.743719 
  404000 0.00017123328  0.013363347            0            0            0 0.0002541132 0.0002541132   0.18250746   -36.893975 
  406000 0.00018204585 -0.0022162295            0            0            0 0.00027015925 0.00027015925 -0.029955445   -36.017047 
  408000 0.00024005313  0.010030674            0            0            0 0.00035624307 0.00035624307   0.13715759   -34.620247 
  410000 0.0001837381 0.0011167303 3.0188049e-07 3.0188049e-07            0 0.00027267057 0.00027297245  0.015503277   -36.535547 
  412000 0.00079880867 0.00029021157            0            0            0 0.0011854461 0.0011854461 0.0051434388   -37.338719 
  414000 0.00018698462 -0.0074626531            0            0            0 0.00027748848 0.00027748848  -0.10150042   -35.565206 
  416000 0.00020408974 -0.0088852356            0            0            0 0.00030287277 0.00030287277  -0.12087664   -34.806557 
  418000 0.00025227077 0.0017516225            0            0            0 0.00037437426 0.00037437426  0.024263529   -35.386685 
  420000 0.00011523399 -0.0023950286            0            0            0 0.00017100926 0.00017100926 -0.032493112   -34.429799 
  422000 0.00024458365 -0.0042383671            0            0            0 0.00036296645 0.00036296645  -0.05744116   -33.826726 
  424000 0.00037872235 0.0088668466            0            0            0 0.00056203064 0.00056203064   0.12149075   -33.310045 
  426000 0.00029540476 -0.0039741444 -6.4603856e-05 2.7056341e-05 -9.1660197e-05 0.00043838587 0.00037378202 -0.053826795   -33.452758 
  428000 0.0001168748 0.0027090889 -1.3053805e-05  3.70031e-05 -5.0056904e-05 0.00017344426 0.00016039045   0.03710776   -32.438804 
  430000 0.00040288057 0.0034603638            0            0            0 0.00059788186 0.00059788186  0.047791364   -32.668766 
  432000 0.00032243173 -0.0027547382            0            0            0 0.00047849436 0.00047849436 -0.037091455   -33.552756 
  434000 0.00024223474  0.010268042            0            0            0 0.00035948062 0.00035948062   0.14039813   -32.577623 
  436000 0.00030462567 -0.0031489315            0            0            0 0.00045206986 0.00045206986 -0.042494006   -33.886255 
  438000 0.00017747738 0.0010868713            0            0            0 0.00026337956 0.00026337956  0.015086457   -35.062421 
  440000 0.00012930056 0.0050934236 -2.5731311e-05 2.2694409e-05 -4.842572e-05 0.0001918843 0.00016615299  0.069631796   -37.668848 
  442000 0.00051428392 -0.0013204062            0            0            0 0.0007632064 0.0007632064 -0.017244891   -36.473988 
  444000 6.6723928e-05 0.0092036104            0            0            0 9.9019485e-05 9.9019485e-05   0.12562063   -37.243285 
  446000 0.00059445039 0.0014317308            0            0            0 0.00088217485 0.00088217485  0.020408551   -38.273267 
  448000 0.0003135656   0.00971231 0.00019675116 0.00014037882 5.6372335e-05 0.00046533688 0.00066208804   0.13312149    -37.60083 
  450000 8.0190661e-05 -0.000439378            0            0            0 0.00011900435 0.00011900435 -0.005873365    -34.83031 
  452000 9.2232751e-05 -0.013395474            0            0            0 0.00013687503 0.00013687503  -0.18255463   -34.122939 
  454000 5.3665758e-05 -0.0012348724            0            0            0 7.964093e-05 7.964093e-05  -0.01676192   -35.610632 
  456000 0.0001786524 0.0038147254            0            0            0 0.0002651233 0.0002651233  0.052291495   -33.892011 
  458000 7.2233697e-05 -0.0011131459            0            0            0 0.00010719608 0.00010719608 -0.015074223   -35.102272 
  460000 0.00027669893 -0.0045283445            0            0            0 0.00041062608 0.00041062608 -0.061348298   -34.055213 
  462000 0.00073649971 0.0095215547            0            0            0 0.0010929785 0.0010929785   0.13095081   -33.780084 
  464000 0.00028744705 -0.0067020498 6.2202927e-05 6.2202927e-05            0 0.00042657648 0.00048877941 -0.090915792     -35.2773 
  466000 0.00061895443 -0.0022206351            0            0            0 0.00091853928 0.00091853928 -0.029367151   -37.726605 
  468000 0.00022545611  0.002385246            0            0            0 0.00033458084 0.00033458084  0.032865284   -38.666454 
  470000 0.00021172953 -7.7514283e-06            0            0            0 0.00031421035 0.00031421035 0.00020849404   -39.643668 
  472000 0.00033783854 -0.00085583328 7.8788768e-06 7.8788768e-06            0 0.00050135835 0.00050923723 -0.011162875   -41.990666 
  474000 0.00011863606  0.014400852            0            0            0  0.000176058  0.000176058   0.19657922   -41.206637 
  476000 0.00049304909 -0.0097992847 9.6122648e-05 9.6122648e-05            0 0.00073169353 0.00082781618  -0.13281778   -39.697192 
  478000 0.00026005527 -0.0094233073            0            0            0 0.0003859266 0.0003859266  -0.12813197   -40.467984 
  480000 0.00040364287 0.0090591218            0            0            0 0.00059901314 0.00059901314   0.12415004   -41.968447 
  482000 7.0310584e-05 0.0098899317            0            0            0 0.00010434214 0.00010434214   0.13498621   -38.992548 
  484000 0.00020525429 -0.0030719121            0            0            0 0.00030460099 0.00030460099  -0.04159106   -37.239142 
  486000 0.00021861176 -0.0021351223            0            0            0 0.0003244237 0.0003244237 -0.028795017    -37.00034 
  488000 0.00033901822 -0.0025509824            0            0            0 0.00050310901 0.00050310901 -0.034287956   -38.560438 
  490000 0.00042570671 -0.00023648193 -4.2137784e-05 1.365965e-06 -4.3503749e-05 0.00063175626 0.00058961848 -0.0026355932    -36.62129 
  492000 0.00026128144 0.0023402155 0.00014080419 0.00014080419            0 0.00038774626 0.00052855045  0.032445114   -36.983237 
  494000 0.00038444739 0.0032816414            0            0            0 0.00057052669 0.00057052669  0.045326539   -38.673679 
  496000 0.00028056581  0.009349499            0            0            0 0.0004163646 0.0004163646   0.12792764   -40.827703 
  498000 0.0002452056 0.0076943477            0            0            0 0.00036388943 0.00036388943   0.10530172   -41.381659 
  500000 0.00017872493 -0.0031581318            0            0            0 0.00026523094 0.00026523094 -0.042806321   -42.596676 
  502000 0.00034607571 0.0012004087            0            0            0 0.00051358245 0.00051358245  0.016885118   -41.389044 
  504000 0.00062897395 -0.010849648  1.48947e-06  1.48947e-06            0 0.00093340843 0.0009348979  -0.14703586   -41.955175 
  506000 0.00039984065 0.0025999281            0            0            0 0.00059337057 0.00059337057  0.036051972   -40.138168 
  508000 0.00032615095 -0.00088768794            0            0            0 0.00048401376 0.00048401376 -0.011622541   -39.660476 
  510000 0.00019029031 0.0055037918            0            0            0 0.00028239418 0.00028239418  0.075344763   -38.225757 
  512000 0.00020557581 -0.007484924            0            0            0 0.00030507813 0.00030507813  -0.10177657   -38.554767 
  514000 0.00027828714 -0.001849197            0            0            0 0.00041298302 0.00041298302 -0.024806922    -38.29153 
  516000 0.00027840389 -0.0081895261            0            0            0 0.00041315627 0.00041315627  -0.11127807   -39.815855 
  518000 0.00036578773 -0.00057927656            0            0            0 0.00054283543 0.00054283543 -0.0073575126   -40.749658 
  520000 0.00042667861 0.00014296051            0            0            0 0.00063319858 0.00063319858 0.0025829371   -42.235486 
  522000 0.00032045387 -0.0070073776            0            0            0 0.00047555919 0.00047555919 -0.095093165   -42.843319 
  524000 0.00033668854 0.0021799264            0            0            0 0.00049965172 0.00049965172  0.030230144   -42.592226 
  526000 0.00016775149 -0.00023601751            0            0            0 0.00024894617 0.00024894617 -0.0029699316   -43.145712 
  528000 0.00079569395 0.0053064439            0            0            0 0.0011808238 0.0011808238  0.073551703   -44.065737 
  530000 0.00059948152 0.0066297738            0            0            0 0.00088964114 0.00088964114  0.091308491   -46.735095 
  532000 0.00024303493 -0.0086977925 4.4345374e-05 4.4345374e-05            0 0.00036066812 0.0004050135   -0.1182181   -45.875635 
  534000 0.00011188914 -0.0057449185            0            0            0 0.00016604546 0.00016604546 -0.078184882   -44.667561 
  536000 0.0001955994 0.0018641707            0            0            0 0.00029027295 0.00029027295  0.025714393    -43.73167 
  538000 0.00013194506 0.0077155665            0            0            0 0.00019580879 0.00019580879   0.10542303   -44.761163 
  540000 0.00054061395  0.015295863            0            0            0 0.00080228062 0.00080228062   0.20941186   -45.667843 
  542000 4.789138e-05 -0.0066674973            0            0            0 7.1071652e-05 7.1071652e-05 -0.090862262   -46.413511 
  544000 0.00015116498  0.016682023            0            0            0 0.00022433149 0.00022433149   0.22773878   -46.279403 
  546000 0.00015616036 -0.012359712            0            0            0 0.00023174473 0.00023174473  -0.16833373   -45.603731 
  548000 0.00042563238 0.0050752291            0            0            0 0.00063164595 0.00063164595  0.069849147   -45.720726 
  550000 0.00033693586 0.0054810762            0            0            0 0.00050001875 0.00050001875  0.075252585     -45.5152 
  552000 0.00036778324 0.0040735351 0.00010087094 0.00010087094            0 0.00054579681 0.00064666776  0.056202766   -45.064349 
  554000 0.00014767287 -0.0073471934 7.8744418e-07 7.8744418e-07            0 0.00021914913 0.00021993658 -0.099983298   -43.289825 
  556000 0.00021844895 0.0019171233            0            0            0 0.00032418209 0.00032418209  0.026470486   -43.187539 
  558000 9.6375424e-05 0.0020323374 1.2403313e-05 1.2403313e-05            0 0.00014302283 0.00015542614  0.027873055   -43.378351 
  560000 0.00033265465  0.018046991            0            0            0 0.00049366535 0.00049366535   0.24662395   -43.999453 
  562000 0.00032296474 0.0065288544            0            0            0 0.00047928537 0.00047928537  0.089521766   -44.341356 
  564000 0.00027503414 -0.0099937428            0            0            0 0.00040815551 0.00040815551  -0.13588952   -41.943505 
  566000 0.00038564989 -0.012861532            0            0            0 0.00057231124 0.00057231124  -0.17483713   -41.113669 
  568000 0.00022760108 -0.0054213911 1.5252797e-06 1.5252797e-06            0 0.00033776401 0.00033928929 -0.073599273   -41.257814 
  570000 0.00038697512 -0.0085851454 2.0243686e-05 2.0243686e-05            0 0.00057427789 0.00059452157  -0.11649227   -39.626908 
  572000 0.00058200408 -0.0087328351 1.9457931e-05 6.4959803e-05 -4.5501871e-05 0.00086370431 0.00088316224  -0.11821787   -39.339928 
  574000 0.00030626924 -0.0025946637            0            0            0 0.00045450895 0.00045450895 -0.034932296   -41.518776 
  576000 0.00022244401 0.0030454212            0            0            0 0.00033011083 0.00033011083  0.041864481   -41.328699 
  578000 0.00013907106 0.0063771663            0            0            0 0.0002063839 0.0002063839  0.087180097   -41.242292 
  580000 0.00031614586 -0.0039379169            0            0            0 0.00046916602 0.00046916602  -0.05323733   -40.975607 
  582000 0.00023775626 0.0037687191            0            0            0 0.00035283447 0.00035283447  0.051751759   -42.904105 
  584000 0.00027667131  0.012162294            0            0            0 0.0004105851 0.0004105851    0.1662836   -43.838509 
  586000 6.8757216e-05 0.0031919564            0            0            0 0.00010203692 0.00010203692  0.043634899   -46.115954 
  588000 0.00039628123  0.013606641            0            0            0 0.00058808833 0.00058808833   0.18615956   -46.244796 
  590000 0.00046869357 -0.010864271 1.3828151e-05 1.3828151e-05            0 0.00069554952 0.00070937767  -0.14746082   -47.405137 
  592000 0.00034833656 0.0085640926            0            0            0 0.00051693759 0.00051693759   0.11731661    -47.67967 
  594000 0.00027062864 -0.0040198166            0            0            0 0.00040161767 0.00040161767  -0.05442185   -48.487097 
  596000 0.00033854895 -0.010714036            0            0            0 0.00050241261 0.00050241261  -0.14561883   -47.328097 
  598000 0.00023360484 0.0097181525 0.00028986606 0.0003525749 -6.2708843e-05 0.0003466737 0.00063653976   0.13317563   -46.644434 
  600000 0.00011756382 0.00033950986 1.8517833e-06 1.8517833e-06            0 0.00017446678 0.00017631856 0.0048066562   -45.360629 
Loop time of 117.677 on 1 procs for 200000 steps with 7039 atoms

Performance: 4405295.027 tau/day, 1699.574 timesteps/s
99.9% CPU use with 1 MPI tasks x 1 OpenMP threads

MPI task timing breakdown:
Section |  min time  |  avg time  |  max time  |%varavg| %total
---------------------------------------------------------------
Pair    | 8.9703     | 8.9703     | 8.9703     |   0.0 |  7.62
Bond    | 0.026527   | 0.026527   | 0.026527   |   0.0 |  0.02
Neigh   | 58.178     | 58.178     | 58.178     |   0.0 | 49.44
Comm    | 2.7615     | 2.7615     | 2.7615     |   0.0 |  2.35
Output  | 0.057977   | 0.057977   | 0.057977   |   0.0 |  0.05
Modify  | 41.791     | 41.791     | 41.791     |   0.0 | 35.51
Other   |            | 5.891      |            |       |  5.01

Nlocal:    7039 ave 7039 max 7039 min
Histogram: 1 0 0 0 0 0 0 0 0 0
Nghost:    0 ave 0 max 0 min
Histogram: 1 0 0 0 0 0 0 0 0 0
Neighs:    4 ave 4 max 4 min
Histogram: 1 0 0 0 0 0 0 0 0 0

Total # of neighbors = 4
Ave neighs/atom = 0.000568263
Ave special neighs/atom = 0
Neighbor list builds = 15222
Dangerous builds = 6071
 if '${zc} < ${nLong} || ${zc} > ${pLong}' then quit
Per MPI rank memory allocation (min/avg/max) = 10.42 | 10.42 | 10.42 Mbytes
Step Temp Press PotEng E_vdwl E_coul KinEng TotEng Enthalpy v_zc 
  600000 0.00011756382 -2.0252237e-05 1.8517833e-06 1.8517833e-06            0 0.00017446678 0.00017631856 -9.9887542e-05   -45.360629 
  602000 0.00032345623 -0.015376973            0            0            0 0.00048001474 0.00048001474  -0.20923577   -45.311536 
  604000 0.00019081896 0.0033182073 2.2213582e-06 2.2213582e-06            0 0.0002831787 0.00028540006  0.045540109   -44.898085 
  606000 0.00039907639 -0.011519077            0            0            0 0.00059223639 0.00059223639  -0.15650841   -45.465727 
  608000 0.00040642468 -0.011864791            0            0            0 0.00060314138 0.00060314138  -0.16121245   -48.109327 
  610000 0.00055411209  -0.01241235            0            0            0 0.00082231211 0.00082231211  -0.16846105   -47.620347 
  612000 0.00026249482 -0.018538852            0            0            0 0.00038954694 0.00038954694   -0.2524489   -46.654011 
  614000 0.00022444483  0.001505346            0            0            0 0.00033308009 0.00033308009  0.020863441   -46.952217 
  616000 0.00023116294 -9.325731e-05 2.1925626e-06 2.1925626e-06            0 0.00034304988 0.00034524244 -0.00092662882   -47.500803 
  618000 0.00027046805 -0.0024966125            0            0            0 0.00040137936 0.00040137936 -0.033648173    -47.76185 
  620000 0.00016796203 0.0072349532            0            0            0 0.00024925861 0.00024925861  0.098921727   -45.894105 
  622000 9.2546139e-05  0.014480693            0            0            0 0.0001373401 0.0001373401   0.19762939   -47.305672 
  624000 0.00037177046 -0.0063020351            0            0            0 0.0005517139 0.0005517139 -0.085397337   -46.526855 
  626000 0.00034177222  0.010086446 1.0076083e-07 1.0076083e-07            0  0.000507196 0.00050729676   0.13806928   -47.941237 
  628000 0.00030626378 0.0042881426            0            0            0 0.00045450085 0.00045450085  0.058937479   -48.953144 
  630000 0.0001407612 -0.0083605407 3.7379986e-05 8.7128494e-05 -4.9748508e-05 0.0002088921 0.00024627209   -0.1137773   -50.772303 
  632000 0.00037261092 0.0038695379            0            0            0 0.00055296117 0.00055296117  0.053326884   -50.161274 
  634000 0.00022858334 0.0091020861            0            0            0 0.0003392217 0.0003392217   0.12447621   -49.275727 
  636000 0.00025014473  0.012913045 0.0002325923 0.0002325923            0 0.00037121919 0.00060381149   0.17671581   -48.951941 
  638000 0.00020166161 -0.015412362 -4.1780453e-05 2.1699159e-06 -4.3950369e-05 0.00029926939 0.00025748894  -0.20994094   -49.550123 
  640000 0.00035414778 -0.0067451525            0            0            0 0.00052556155 0.00052556155 -0.091466858   -51.573713 
  642000 0.00051723142  0.015367348            0            0            0 0.00076758054 0.00076758054    0.2103521   -50.934925 
  644000 0.00022695451  0.011436324            0            0            0 0.00033680449 0.00033680449   0.15630883   -51.618113 
  646000 0.0002813831 0.0012462325            0            0            0 0.00041757748 0.00041757748  0.017414071   -51.551571 
  648000 0.00019393295 0.0013154856            0            0            0 0.00028779991 0.00028779991  0.018228789   -52.525673 
  650000 0.00043809758  0.011458167            0            0            0 0.00065014453 0.00065014453   0.15692007    -53.00856 
  652000 0.00024924463 -0.00020920025            0            0            0 0.00036988342 0.00036988342 -0.0024832526   -52.620702 
  654000 0.00026406468 -0.0027174988            0            0            0 0.00039187664 0.00039187664  -0.03667019   -52.016967 
  656000 0.00036640207 -0.012066533 2.913647e-05 2.8260052e-05 8.7641839e-07 0.00054374713 0.0005728836  -0.16399412    -51.65637 
  658000 0.00016063527 0.0092657874            0            0            0 0.00023838557 0.00023838557   0.12660798    -51.47447 
  660000 6.5151816e-05 0.0062056953 4.732993e-05 4.732993e-05            0 9.6686443e-05 0.00014401637  0.084779156   -51.083714 
  662000 0.00042622111  0.011819779            0            0            0 0.00063251963 0.00063251963   0.16183422   -50.654684 
  664000 2.6594183e-05 0.00076065926            0            0            0 3.9466236e-05 3.9466236e-05  0.010413566   -50.378205 
  666000 0.00053642531 0.0059813198            0            0            0 0.00079606462 0.00079606462  0.082371104    -53.01137 
  668000 0.00025894327  0.014940045            0            0            0 0.00038427638 0.00038427638    0.2041411   -55.556329 
  670000 0.0003833648 0.00038645643 0.00011021125 0.00011021125            0 0.00056892011 0.00067913136 0.0059497404   -56.510073 
  672000 0.00013944026 -0.013232956            0            0            0 0.0002069318 0.0002069318  -0.18026811   -57.315848 
  674000 0.00029315429 -0.00029591166 5.2089267e-05 5.2089267e-05            0 0.00043504613 0.0004871354 -0.0035485968   -57.705278 
  676000 0.00016148275 0.0058576686 -3.0003189e-05 1.7709974e-05 -4.7713162e-05 0.00023964324 0.00020964005  0.080098287   -58.274673 
  678000 0.00037189627  0.013641782            0            0            0 0.00055190061 0.00055190061   0.18660263    -58.98316 
  680000 0.00021574507  0.010791323            0            0            0 0.00032016948 0.00032016948   0.14749548   -60.196216 
  682000 0.00020750132 -0.015595227            0            0            0 0.00030793562 0.00030793562  -0.21238446   -58.951399 
  684000 0.00019929168 0.0067183431            0            0            0 0.00029575236 0.00029575236  0.091922537   -58.434071 
  686000 0.00024838316 0.0032043149            0            0            0 0.00036860498 0.00036860498  0.044070016   -59.059831 
  688000 0.00048393841 -0.009582667            0            0            0 0.00071817312 0.00071817312  -0.12997312   -57.494623 
  690000 4.3705335e-05 -0.0093314014            0            0            0 6.4859487e-05 6.4859487e-05   -0.1271996   -57.667215 
  692000 0.00053241457 -0.0035935199            0            0            0 0.0007901126 0.0007901126 -0.048219393   -57.901284 
  694000 0.00014256903  0.015544295            0            0            0 0.00021157496 0.00021157496   0.21220934   -56.710531 
  696000 0.00020704635 0.0026411827 -7.0375588e-05 2.0243121e-05 -9.0618708e-05 0.00030726043 0.00023688484  0.036258129   -56.786995 
  698000 0.00061130957 0.0058345295 3.0458034e-05 3.0458034e-05            0 0.00090719417 0.00093765221  0.080510722      -58.606 
  700000 0.00019863555 -0.0048393458            0            0            0 0.00029477866 0.00029477866 -0.065705676   -58.297205 
  702000 0.00027903464  0.018960246            0            0            0 0.00041409232 0.00041409232   0.25899963   -58.418865 
  704000 0.00012953394 -0.016433844            0            0            0 0.00019223065 0.00019223065  -0.22393748   -60.264347 
  706000 0.00088084659 -0.016384059            0            0            0 0.0013071919 0.0013071919  -0.22214354    -60.75272 
  708000 0.00019591667 -0.009796841            0            0            0 0.00029074379 0.00029074379  -0.13332152   -63.374812 
  710000 0.00018073199  0.013696203            0            0            0 0.00026820946 0.00026820946   0.18706115      -63.962 
  712000 0.00033489531 0.0081549407            0            0            0 0.00049699054 0.00049699054   0.11171653   -64.814802 
  714000 0.00035216932   0.01668872            0            0            0 0.00052262548 0.00052262548   0.22812841   -64.423546 
  716000 0.00038860023 -0.0047833774            0            0            0 0.00057668958 0.00057668958  -0.06466045   -67.288831 
  718000 0.00098742272 -0.0018668492 -4.2134275e-05 8.9456324e-08 -4.2223732e-05 0.0014653527 0.0014232184 -0.024037433   -67.455304 
  720000 5.0236844e-05  0.015210508            0            0            0 7.4552361e-05 7.4552361e-05   0.20752003   -71.158682 
  722000 0.00025892171  0.013306647            0            0            0 0.00038424438 0.00038424438   0.18186431    -69.81626 
  724000 0.00057432811  -0.00728124            0            0            0 0.00085231303 0.00085231303 -0.098451429   -71.572475 
  726000 0.00044310411  0.010357576            0            0            0 0.00065757431 0.00065757431   0.14191731   -72.964404 
  728000 0.00010101145 0.0035435768 5.8916537e-06 5.8916537e-06            0 0.00014990277 0.00015579442  0.048484162   -69.387992 
  730000 0.00038431293 -0.0022487808            0            0            0 0.00057032715 0.00057032715 -0.030099222   -71.062278 
  732000 0.00012066745 -0.032474108            0            0            0 0.00017907263 0.00017907263  -0.44271258   -70.891318 
  734000  0.000286694 0.0069631795            0            0            0 0.00042545895 0.00042545895  0.095391396   -70.624258 
  736000 0.00033083936 0.0020365433 -4.09712e-05 3.5881593e-06 -4.455936e-05 0.00049097144 0.00045000024  0.028224991   -71.787847 
  738000 0.00048400581 -0.014309805            0            0            0 0.00071827316 0.00071827316  -0.19444315   -71.643661 
  740000 7.4410317e-05 -0.0099949861 0.00016018268 0.0002657995 -0.00010561682 0.00011042622 0.0002706089  -0.13604402   -68.486171 
  742000 5.814584e-05   0.01204067            0            0            0 8.6289452e-05 8.6289452e-05   0.16430057   -65.842624 
  744000 0.00018300733 -0.0061020338 2.0802558e-06 2.0802558e-06            0 0.0002715861 0.00027366636 -0.082947707   -67.720552 
  746000 0.00041337524  0.013515945 7.1816238e-07 7.1816238e-07            0 0.00061345613 0.00061417429    0.1849487   -68.324188 
  748000 0.00028147998 0.0035501673            0            0            0 0.00041772124 0.00041772124  0.048835971   -68.880513 
  750000 0.00017191764 0.0010286676 4.912111e-05 4.912111e-05            0 0.0002551288 0.00030424991  0.014333528   -69.779316 
  752000 0.00021621168  0.019897716            0            0            0 0.00032086194 0.00032086194   0.27169191   -70.068305 
  754000 0.00029656611 0.0072873452            0            0            0 0.00044010933 0.00044010933  0.099827115   -71.279177 
  756000 0.00033824643 -0.027355146 2.1820795e-05 2.1820795e-05            0 0.00050196365 0.00052378445  -0.37255392   -72.374278 
  758000 0.00044106177 -0.0037228127            0            0            0 0.00065454343 0.00065454343 -0.050118297   -73.934112 
  760000 0.00022297893  0.000637742            0            0            0 0.00033090466 0.00033090466  0.009028622   -75.776744 
  762000 0.00019693858 -0.0040323904            0            0            0 0.00029226032 0.00029226032 -0.054702693    -78.48908 
  764000 0.00020449707 -0.0012909494            0            0            0 0.00030347725 0.00030347725 -0.017302879   -78.338157 
  766000 0.0001391642 -0.021780752            0            0            0 0.00020652213 0.00020652213  -0.29684592    -77.89688 
  768000 0.00035381175 -0.011622063            0            0            0 0.00052506286 0.00052506286  -0.15798012   -79.217197 
  770000 0.00051828348 0.0041477522            0            0            0 0.00076914181 0.00076914181  0.057337434   -78.025263 
  772000 0.00042918717 0.0013365653            0            0            0 0.00063692131 0.00063692131  0.018865401   -76.964887 
  774000 0.00028445427 0.0014736951            0            0            0 0.00042213515 0.00042213515  0.020520833   -77.270821 
  776000 0.0001438301 0.0070409965            0            0            0 0.00021344641 0.00021344641  0.096240676   -79.393843 
  778000 0.00018244367 -0.012843582            0            0            0 0.00027074961 0.00027074961  -0.17489389   -79.425248 
  780000 0.00019529719 0.0041902115            0            0            0 0.00028982447 0.00028982447  0.057437189    -81.53271 
  782000 5.7473788e-05 -0.0079362365            0            0            0 8.5292114e-05 8.5292114e-05  -0.10815149   -81.181099 
  784000 0.00016650819  0.010067699            0            0            0 0.00024710108 0.00024710108   0.13755341    -80.80694 
  786000 0.00032039103 -0.0061276373            0            0            0 0.00047546593 0.00047546593 -0.083095096   -80.485006 
  788000 0.00033061243  0.015642644            0            0            0 0.00049063467 0.00049063467   0.21382972     -80.4408 
  790000 0.00048368332 -0.0080160482 5.0569951e-05 5.0569951e-05            0 0.00071779457 0.00076836453  -0.10855691   -82.921498 
  792000 3.3569121e-05   0.02127152            0            0            0 4.9817168e-05 4.9817168e-05    0.2901572   -82.780461 
  794000 0.00063709113 -0.020019069            0            0            0 0.00094545446 0.00094545446  -0.27208064   -83.215379 
  796000 0.00056575431 0.0098324908            0            0            0 0.00083958936 0.00083958936   0.13493806   -83.852855 
  798000 0.00089228415  0.009995562            0            0            0 0.0013241654 0.0013241654   0.13764665   -84.101361 
  800000 0.00010559756 -0.012809051            0            0            0 0.00015670863 0.00015670863  -0.17453698   -82.003533 
Loop time of 120.289 on 1 procs for 200000 steps with 7039 atoms

Performance: 4309626.214 tau/day, 1662.664 timesteps/s
99.9% CPU use with 1 MPI tasks x 1 OpenMP threads

MPI task timing breakdown:
Section |  min time  |  avg time  |  max time  |%varavg| %total
---------------------------------------------------------------
Pair    | 9.0952     | 9.0952     | 9.0952     |   0.0 |  7.56
Bond    | 0.026973   | 0.026973   | 0.026973   |   0.0 |  0.02
Neigh   | 59.226     | 59.226     | 59.226     |   0.0 | 49.24
Comm    | 2.8286     | 2.8286     | 2.8286     |   0.0 |  2.35
Output  | 0.0434     | 0.0434     | 0.0434     |   0.0 |  0.04
Modify  | 43.088     | 43.088     | 43.088     |   0.0 | 35.82
Other   |            | 5.98       |            |       |  4.97

Nlocal:    7039 ave 7039 max 7039 min
Histogram: 1 0 0 0 0 0 0 0 0 0
Nghost:    0 ave 0 max 0 min
Histogram: 1 0 0 0 0 0 0 0 0 0
Neighs:    1 ave 1 max 1 min
Histogram: 1 0 0 0 0 0 0 0 0 0

Total # of neighbors = 1
Ave neighs/atom = 0.000142066
Ave special neighs/atom = 0
Neighbor list builds = 15416
Dangerous builds = 6303
 if '${zc} < ${nLong} || ${zc} > ${pLong}' then quit
Per MPI rank memory allocation (min/avg/max) = 10.42 | 10.42 | 10.42 Mbytes
Step Temp Press PotEng E_vdwl E_coul KinEng TotEng Enthalpy v_zc 
  800000 0.00010559756 7.6602227e-06            0            0            0 0.00015670863 0.00015670863 0.00026118106   -82.003533 
  802000 0.00067741391  0.011273989            0            0            0 0.0010052942 0.0010052942   0.15476335   -81.340026 
  804000 0.00022632264 0.0075708931            0            0            0 0.00033586678 0.00033586678   0.10358999   -80.680479 
  806000 0.00015834781 -0.012378891 4.4932406e-06 4.4932406e-06            0 0.00023499094 0.00023948418  -0.16858755   -81.310824 
  808000 0.00023776734 -0.0072445478            0            0            0 0.00035285092 0.00035285092 -0.098450471   -81.303661 
  810000 0.00015389425 0.0052017232            0            0            0 0.00022838177 0.00022838177  0.071171048    -81.49705 
  812000 0.00013227787 -0.029589564            0            0            0 0.00019630269 0.00019630269  -0.40335507    -84.49831 
  814000 0.00025567238  -0.02285765            0            0            0 0.00037942231 0.00037942231  -0.31136008   -84.303761 
  816000 0.00037285329 -0.0073536734            0            0            0 0.00055332085 0.00055332085  -0.09973829   -83.528012 
  818000 0.00041261111 0.0092941685            0            0            0 0.00061232216 0.00061232216   0.12736899   -82.610386 
  820000 9.9154508e-05 -0.030736153            0            0            0 0.00014714704 0.00014714704  -0.41904176   -83.757927 
  822000 0.00011277284  0.019940836 0.00013771246 0.00013771246            0 0.00016735688 0.00030506934   0.27226419   -83.928624 
  824000 8.8013443e-05 -0.0095573904            0            0            0 0.0001306135 0.0001306135  -0.13021595   -85.974766 
  826000 0.00037159786  0.026498567            0            0            0 0.00055145777 0.00055145777   0.36194689   -84.783057 
  828000 0.00038955281  0.010695026            0            0            0 0.00057810323 0.00057810323   0.14644008   -85.932315 
  830000 0.00024369396 -0.0040179064 -2.6093909e-06 4.2389937e-05 -4.4999328e-05 0.00036164613 0.00035903674  -0.05443838   -88.320652 
  832000 0.00028284696 -0.011239186            0            0            0 0.00041974988 0.00041974988  -0.15286365   -89.204777 
  834000 0.00019878002 0.0087108974            0            0            0 0.00029499305 0.00029499305   0.11909683   -87.747679 
  836000 0.00024533134  0.016464015            0            0            0 0.00036407603 0.00036407603   0.22490527   -88.673821 
  838000 0.00017565776  0.024526188            0            0            0 0.0002606792 0.0002606792   0.33475621   -91.025628 
  840000 0.00066733474  0.019908911 1.8191601e-06 1.8191601e-06            0 0.00099033651 0.00099215567   0.27251588    -91.18343 
  842000 8.6510426e-05 -0.020018762            0            0            0  0.000128383  0.000128383  -0.27289351   -90.471808 
  844000 0.00041550484 -0.0089767729            0            0            0 0.00061661651 0.00061661651  -0.12181131   -92.418131 
  846000 0.00034978314  -0.02992977            0            0            0 0.00051908435 0.00051908435  -0.40767213   -92.037397 
  848000 0.00028100009 -0.0041538053            0            0            0 0.00041700908 0.00041700908 -0.056233837   -92.411456 
  850000 0.00027660921 -0.0012056144            0            0            0 0.00041049294 0.00041049294 -0.016032039   -91.871062 
  852000 0.00025019886 0.0080397383            0            0            0 0.00037129952 0.00037129952   0.11001967   -92.562496 
  854000 0.00051567948 -0.0026940115            0            0            0 0.00076527743 0.00076527743 -0.035976462   -92.813492 
  856000 0.0001682129 0.0086285227            0            0            0 0.00024963091 0.00024963091   0.11792802   -91.421935 
  858000 0.00034806624  0.010727132            0            0            0 0.00051653643 0.00051653643   0.14681639   -90.179197 
  860000 0.00082760424  0.017852441            0            0            0 0.0012281793 0.0012281793   0.24470514   -90.038679 
  862000 4.3842564e-05 -0.013507536 9.9978469e-05 9.9978469e-05            0 6.5063138e-05 0.00016504161   -0.1840548    -91.09601 
  864000 0.00049673335  0.010476153            0            0            0 0.00073716103 0.00073716103   0.14361409   -91.456482 
  866000 0.00041806662 -0.00056386229            0            0            0 0.00062041823 0.00062041823 -0.0070697053   -93.428623 
  868000 0.00022242885 -0.012019386            0            0            0 0.00033008833 0.00033008833  -0.16359391   -95.081507 
  870000 0.00043166085  0.011702364 -3.6871384e-06 4.3025846e-05 -4.6712984e-05 0.0006405923 0.00063690516   0.16023727   -95.684969 
  872000 0.0001264625   0.01306318            0            0            0 0.00018767258 0.00018767258   0.17834726   -95.765957 
  874000 0.00015314904  0.007944015            0            0            0 0.00022727587 0.00022727587   0.10857014   -95.652165 
  876000 0.00028427171  -0.02850311 8.1739508e-05 8.1739508e-05            0 0.00042186423 0.00050360374  -0.38823039   -94.751605 
  878000 0.00053336806 -0.013934018            0            0            0 0.0007915276 0.0007915276   -0.1892448   -94.523745 
  880000 0.00048811022 0.0023089588            0            0            0 0.00072436416 0.00072436416  0.032214639   -94.032901 
  882000 0.00024136648 -0.014153793            0            0            0 0.00035819211 0.00035819211   -0.1926755   -92.281073 
  884000 0.00053624929 -0.0088109355            0            0            0 0.0007958034 0.0007958034  -0.11937039   -94.015211 
  886000 0.00049838332  0.004925147 -3.8250196e-05 7.4956158e-06 -4.5745812e-05 0.00073960962 0.00070135943  0.067871997   -94.337065 
  888000 0.00024602379  0.011096221            0            0            0 0.00036510364 0.00036510364    0.1516987   -95.003956 
  890000 0.00012931833  0.013673761            0            0            0 0.00019191068 0.00019191068   0.18667878   -96.052084 
  892000 8.7015217e-05 -0.012929986 5.2867979e-06 5.2867979e-06            0 0.00012913211 0.00013441891  -0.17620862   -95.479014 
  894000 0.00050456014 -0.0039578593            0            0            0 0.00074877613 0.00074877613   -0.0532297   -96.019135 
  896000 0.00045445979 0.0040459869            0            0            0 0.00067442634 0.00067442634  0.055854813   -97.048791 
  898000 0.00047075776 -0.00094676935            0            0            0 0.0006986128 0.0006986128 -0.012213713   -97.058921 
  900000 0.00035004657 -0.0020403847            0            0            0 0.00051947527 0.00051947527 -0.027307905   -99.396214 
  902000 0.00093610864 0.0027845647            0            0            0 0.0013892017 0.0013892017  0.039365932   -100.80958 
  904000 0.00016684475 -0.0086585603            0            0            0 0.00024760055 0.00024760055  -0.11784045   -103.13081 
  906000 0.00013843676 -0.029348818 6.2946692e-05 6.2946692e-05            0 0.00020544259 0.00026838929  -0.39999962   -101.01542 
  908000 0.00039385202   0.01162289            0            0            0 0.00058448333 0.00058448333   0.15910096    -104.0186 
  910000 0.00030348309  -0.00496888 5.2600893e-05 5.2600893e-05            0 0.00045037425 0.00050297514 -0.067264105   -103.49176 
  912000 0.00022129895 -0.016275257            0            0            0 0.00032841154 0.00032841154  -0.22163844   -103.23129 
  914000 0.00012070374 -0.022754069            0            0            0 0.00017912648 0.00017912648  -0.31014772   -102.53871 
  916000 0.00026227369 -0.015306082            0            0            0 0.00038921878 0.00038921878  -0.20835974   -105.37509 
  918000 0.00026378508 -0.031875268            0            0            0 0.0003914617 0.0003914617  -0.43433304   -104.72531 
  920000 0.0003109375  0.019040067            0            0            0 0.00046143673 0.00046143673    0.2601356   -103.12184 
  922000 0.00028391158 -0.024137418            0            0            0 0.00042132978 0.00042132978  -0.32877204   -103.18908 
  924000 0.00050076662 0.0068187856            0            0            0 0.00074314649 0.00074314649  0.093739796   -104.11281 
  926000 0.00055231906  -0.02280865            0            0            0 0.00081965122 0.00081965122  -0.31025158   -104.11493 
  928000 0.00041391348  0.010457847 3.1783245e-05 3.1783245e-05            0 0.0006142549 0.00064603814   0.14327331   -104.77289 
  930000 0.00017198354 -0.0091928932            0            0            0 0.00025522661 0.00025522661  -0.12512022   -106.47168 
  932000 0.00022035508 0.0097343839            0            0            0 0.00032701082 0.00032701082   0.13308747   -106.21834 
  934000 0.00011311382 0.0033966945            0            0            0 0.00016786291 0.00016786291  0.046493005   -105.15697 
  936000 0.00016640167 -0.0063634021            0            0            0 0.00024694301 0.00024694301  -0.08653905   -105.68009 
  938000 0.0001416543 -0.00091172747            0            0            0 0.00021021747 0.00021021747 -0.012224196   -106.37644 
  940000 0.00021989733 -0.033790925            0            0            0 0.00032633152 0.00032633152  -0.46052448   -106.18037 
  942000 0.00030898618 -0.016946378 4.4020189e-06 4.4020189e-06            0 0.00045854094 0.00046294296  -0.23065686     -107.635 
  944000 0.00010287923  0.016703039            0            0            0 0.00015267458 0.00015267458   0.22795375   -108.69718 
  946000 0.00042472935 -0.030924847            0            0            0 0.00063030584 0.00063030584  -0.42113206   -108.09417 
  948000 0.00037228708 -0.0026619071            0            0            0 0.00055248059 0.00055248059  -0.03575141   -108.50019 
  950000 8.5834934e-05 -0.015617902            0            0            0 0.00012738055 0.00012738055  -0.21287426   -108.71173 
  952000 0.00056582817 0.0093958649            0            0            0 0.00083969897 0.00083969897   0.12898333   -110.66109 
  954000 0.00038590056 2.3351044e-05            0            0            0 0.00057268323 0.00057268323 0.00089115179    -109.1587 
  956000 0.00025112755 -0.0043022683            0            0            0 0.00037267771 0.00037267771 -0.058302952    -110.0675 
  958000 0.00044260277  0.023238528            0            0            0 0.00065683031 0.00065683031   0.31759087   -111.19257 
  960000 0.00045544165   0.01443282            0            0            0 0.00067588343 0.00067588343   0.19751503   -112.15258 
  962000 0.00036541853 -0.00020866137            0            0            0 0.00054228754 0.00054228754 -0.002303499    -111.2281 
  964000 0.00022315541  0.030352543            0            0            0 0.00033116656 0.00033116656   0.41428828   -112.46157 
  966000 0.00028412996 -0.029715595            0            0            0 0.00042165387 0.00042165387  -0.40484858    -112.1679 
  968000 0.00046990069 -0.0021878582            0            0            0 0.00069734091 0.00069734091 -0.029141327   -110.72656 
  970000 0.00052968865 -0.0042381047            0            0            0 0.0007860673 0.0007860673 -0.057014479   -111.38446 
  972000 0.00023616449 -0.013963381            0            0            0 0.00035047226 0.00035047226  -0.19008632   -111.02101 
  974000 0.00053758845  0.037505059            0            0            0 0.00079779073 0.00079779073   0.51230307   -110.76594 
  976000 0.00030409287 0.0035052015            0            0            0 0.00045127917 0.00045127917  0.048256272   -109.18635 
  978000 0.00035301455  0.014522277            0            0            0 0.00052387981 0.00052387981   0.19858306   -108.13874 
  980000 0.00028444879 -0.014369352            0            0            0 0.00042212701 0.00042212701  -0.19555142   -109.75521 
  982000 0.00022900825 0.0067298863            0            0            0 0.00033985228 0.00033985228  0.092124067   -109.52915 
  984000 0.00025127537 -0.017387671            0            0            0 0.00037289707 0.00037289707  -0.23676539   -109.24755 
  986000 0.00015741221 -0.0079834922            0            0            0 0.00023360249 0.00023360249  -0.10864767   -109.23889 
  988000 0.00030458398  0.015338295            0            0            0 0.00045200799 0.00045200799   0.20964029   -109.63271 
  990000 0.00014357926 -0.0089168139 4.4142538e-05 9.3644721e-07 4.320609e-05 0.00021307415 0.00025721669  -0.12135297   -108.75448 
  992000 0.00023148961 -0.0084993161            0            0            0 0.00034353465 0.00034353465   -0.1155727   -107.99094 
  994000 0.00041884344 -0.0026992741 6.2920566e-05 1.555255e-05 4.7368016e-05 0.00062157104 0.00068449161 -0.036129021   -107.31163 
  996000 0.00017529534 -0.0053905441            0            0            0 0.00026014137 0.00026014137 -0.073257722   -103.14548 
  998000 0.00023106883 -0.018382212            0            0            0 0.00034291022 0.00034291022  -0.25035923   -96.756484 
 1000000 0.00018885378 -0.0027659254            0            0            0 0.00028026234 0.00028026234 -0.037442261   -90.080993 
Loop time of 114.657 on 1 procs for 200000 steps with 7039 atoms

Performance: 4521326.063 tau/day, 1744.339 timesteps/s
99.9% CPU use with 1 MPI tasks x 1 OpenMP threads

MPI task timing breakdown:
Section |  min time  |  avg time  |  max time  |%varavg| %total
---------------------------------------------------------------
Pair    | 8.7329     | 8.7329     | 8.7329     |   0.0 |  7.62
Bond    | 0.024972   | 0.024972   | 0.024972   |   0.0 |  0.02
Neigh   | 57.917     | 57.917     | 57.917     |   0.0 | 50.51
Comm    | 2.7305     | 2.7305     | 2.7305     |   0.0 |  2.38
Output  | 0.055706   | 0.055706   | 0.055706   |   0.0 |  0.05
Modify  | 39.693     | 39.693     | 39.693     |   0.0 | 34.62
Other   |            | 5.502      |            |       |  4.80

Nlocal:    7039 ave 7039 max 7039 min
Histogram: 1 0 0 0 0 0 0 0 0 0
Nghost:    35 ave 35 max 35 min
Histogram: 1 0 0 0 0 0 0 0 0 0
Neighs:    7 ave 7 max 7 min
Histogram: 1 0 0 0 0 0 0 0 0 0

Total # of neighbors = 7
Ave neighs/atom = 0.000994459
Ave special neighs/atom = 0
Neighbor list builds = 15466
Dangerous builds = 6404
 if '${zc} < ${nLong} || ${zc} > ${pLong}' then quit
quit
